p cnf 240 606
1 7 13 19 25 31 37 43 49 55 61 67 73 79 85 91 97 103 109 115 121 127 133 139 145 151 157 163 169 175 181 187 193 199 205 211 217 223 229 235 0
2 8 14 20 26 32 38 44 50 56 62 68 74 80 86 92 98 104 110 116 122 128 134 140 146 152 158 164 170 176 182 188 194 200 206 212 218 224 230 236 0
3 9 15 21 27 33 39 45 51 57 63 69 75 81 87 93 99 105 111 117 123 129 135 141 147 153 159 165 171 177 183 189 195 201 207 213 219 225 231 237 0
4 10 16 22 28 34 40 46 52 58 64 70 76 82 88 94 100 106 112 118 124 130 136 142 148 154 160 166 172 178 184 190 196 202 208 214 220 226 232 238 0
5 11 17 23 29 35 41 47 53 59 65 71 77 83 89 95 101 107 113 119 125 131 137 143 149 155 161 167 173 179 185 191 197 203 209 215 221 227 233 239 0
6 12 18 24 30 36 42 48 54 60 66 72 78 84 90 96 102 108 114 120 126 132 138 144 150 156 162 168 174 180 186 192 198 204 210 216 222 228 234 240 0
-1 -2 0
-1 -3 0
-1 -4 0
-1 -5 0
-1 -6 0
-7 -8 0
-7 -9 0
-7 -10 0
-7 -11 0
-7 -12 0
-13 -14 0
-13 -15 0
-13 -16 0
-13 -17 0
-13 -18 0
-19 -20 0
-19 -21 0
-19 -22 0
-19 -23 0
-19 -24 0
-25 -26 0
-25 -27 0
-25 -28 0
-25 -29 0
-25 -30 0
-31 -32 0
-31 -33 0
-31 -34 0
-31 -35 0
-31 -36 0
-37 -38 0
-37 -39 0
-37 -40 0
-37 -41 0
-37 -42 0
-43 -44 0
-43 -45 0
-43 -46 0
-43 -47 0
-43 -48 0
-49 -50 0
-49 -51 0
-49 -52 0
-49 -53 0
-49 -54 0
-55 -56 0
-55 -57 0
-55 -58 0
-55 -59 0
-55 -60 0
-61 -62 0
-61 -63 0
-61 -64 0
-61 -65 0
-61 -66 0
-67 -68 0
-67 -69 0
-67 -70 0
-67 -71 0
-67 -72 0
-73 -74 0
-73 -75 0
-73 -76 0
-73 -77 0
-73 -78 0
-79 -80 0
-79 -81 0
-79 -82 0
-79 -83 0
-79 -84 0
-85 -86 0
-85 -87 0
-85 -88 0
-85 -89 0
-85 -90 0
-91 -92 0
-91 -93 0
-91 -94 0
-91 -95 0
-91 -96 0
-97 -98 0
-97 -99 0
-97 -100 0
-97 -101 0
-97 -102 0
-103 -104 0
-103 -105 0
-103 -106 0
-103 -107 0
-103 -108 0
-109 -110 0
-109 -111 0
-109 -112 0
-109 -113 0
-109 -114 0
-115 -116 0
-115 -117 0
-115 -118 0
-115 -119 0
-115 -120 0
-121 -122 0
-121 -123 0
-121 -124 0
-121 -125 0
-121 -126 0
-127 -128 0
-127 -129 0
-127 -130 0
-127 -131 0
-127 -132 0
-133 -134 0
-133 -135 0
-133 -136 0
-133 -137 0
-133 -138 0
-139 -140 0
-139 -141 0
-139 -142 0
-139 -143 0
-139 -144 0
-145 -146 0
-145 -147 0
-145 -148 0
-145 -149 0
-145 -150 0
-151 -152 0
-151 -153 0
-151 -154 0
-151 -155 0
-151 -156 0
-157 -158 0
-157 -159 0
-157 -160 0
-157 -161 0
-157 -162 0
-163 -164 0
-163 -165 0
-163 -166 0
-163 -167 0
-163 -168 0
-169 -170 0
-169 -171 0
-169 -172 0
-169 -173 0
-169 -174 0
-175 -176 0
-175 -177 0
-175 -178 0
-175 -179 0
-175 -180 0
-181 -182 0
-181 -183 0
-181 -184 0
-181 -185 0
-181 -186 0
-187 -188 0
-187 -189 0
-187 -190 0
-187 -191 0
-187 -192 0
-193 -194 0
-193 -195 0
-193 -196 0
-193 -197 0
-193 -198 0
-199 -200 0
-199 -201 0
-199 -202 0
-199 -203 0
-199 -204 0
-205 -206 0
-205 -207 0
-205 -208 0
-205 -209 0
-205 -210 0
-211 -212 0
-211 -213 0
-211 -214 0
-211 -215 0
-211 -216 0
-217 -218 0
-217 -219 0
-217 -220 0
-217 -221 0
-217 -222 0
-223 -224 0
-223 -225 0
-223 -226 0
-223 -227 0
-223 -228 0
-229 -230 0
-229 -231 0
-229 -232 0
-229 -233 0
-229 -234 0
-235 -236 0
-235 -237 0
-235 -238 0
-235 -239 0
-235 -240 0
-2 -3 0
-2 -4 0
-2 -5 0
-2 -6 0
-8 -9 0
-8 -10 0
-8 -11 0
-8 -12 0
-14 -15 0
-14 -16 0
-14 -17 0
-14 -18 0
-20 -21 0
-20 -22 0
-20 -23 0
-20 -24 0
-26 -27 0
-26 -28 0
-26 -29 0
-26 -30 0
-32 -33 0
-32 -34 0
-32 -35 0
-32 -36 0
-38 -39 0
-38 -40 0
-38 -41 0
-38 -42 0
-44 -45 0
-44 -46 0
-44 -47 0
-44 -48 0
-50 -51 0
-50 -52 0
-50 -53 0
-50 -54 0
-56 -57 0
-56 -58 0
-56 -59 0
-56 -60 0
-62 -63 0
-62 -64 0
-62 -65 0
-62 -66 0
-68 -69 0
-68 -70 0
-68 -71 0
-68 -72 0
-74 -75 0
-74 -76 0
-74 -77 0
-74 -78 0
-80 -81 0
-80 -82 0
-80 -83 0
-80 -84 0
-86 -87 0
-86 -88 0
-86 -89 0
-86 -90 0
-92 -93 0
-92 -94 0
-92 -95 0
-92 -96 0
-98 -99 0
-98 -100 0
-98 -101 0
-98 -102 0
-104 -105 0
-104 -106 0
-104 -107 0
-104 -108 0
-110 -111 0
-110 -112 0
-110 -113 0
-110 -114 0
-116 -117 0
-116 -118 0
-116 -119 0
-116 -120 0
-122 -123 0
-122 -124 0
-122 -125 0
-122 -126 0
-128 -129 0
-128 -130 0
-128 -131 0
-128 -132 0
-134 -135 0
-134 -136 0
-134 -137 0
-134 -138 0
-140 -141 0
-140 -142 0
-140 -143 0
-140 -144 0
-146 -147 0
-146 -148 0
-146 -149 0
-146 -150 0
-152 -153 0
-152 -154 0
-152 -155 0
-152 -156 0
-158 -159 0
-158 -160 0
-158 -161 0
-158 -162 0
-164 -165 0
-164 -166 0
-164 -167 0
-164 -168 0
-170 -171 0
-170 -172 0
-170 -173 0
-170 -174 0
-176 -177 0
-176 -178 0
-176 -179 0
-176 -180 0
-182 -183 0
-182 -184 0
-182 -185 0
-182 -186 0
-188 -189 0
-188 -190 0
-188 -191 0
-188 -192 0
-194 -195 0
-194 -196 0
-194 -197 0
-194 -198 0
-200 -201 0
-200 -202 0
-200 -203 0
-200 -204 0
-206 -207 0
-206 -208 0
-206 -209 0
-206 -210 0
-212 -213 0
-212 -214 0
-212 -215 0
-212 -216 0
-218 -219 0
-218 -220 0
-218 -221 0
-218 -222 0
-224 -225 0
-224 -226 0
-224 -227 0
-224 -228 0
-230 -231 0
-230 -232 0
-230 -233 0
-230 -234 0
-236 -237 0
-236 -238 0
-236 -239 0
-236 -240 0
-3 -4 0
-3 -5 0
-3 -6 0
-9 -10 0
-9 -11 0
-9 -12 0
-15 -16 0
-15 -17 0
-15 -18 0
-21 -22 0
-21 -23 0
-21 -24 0
-27 -28 0
-27 -29 0
-27 -30 0
-33 -34 0
-33 -35 0
-33 -36 0
-39 -40 0
-39 -41 0
-39 -42 0
-45 -46 0
-45 -47 0
-45 -48 0
-51 -52 0
-51 -53 0
-51 -54 0
-57 -58 0
-57 -59 0
-57 -60 0
-63 -64 0
-63 -65 0
-63 -66 0
-69 -70 0
-69 -71 0
-69 -72 0
-75 -76 0
-75 -77 0
-75 -78 0
-81 -82 0
-81 -83 0
-81 -84 0
-87 -88 0
-87 -89 0
-87 -90 0
-93 -94 0
-93 -95 0
-93 -96 0
-99 -100 0
-99 -101 0
-99 -102 0
-105 -106 0
-105 -107 0
-105 -108 0
-111 -112 0
-111 -113 0
-111 -114 0
-117 -118 0
-117 -119 0
-117 -120 0
-123 -124 0
-123 -125 0
-123 -126 0
-129 -130 0
-129 -131 0
-129 -132 0
-135 -136 0
-135 -137 0
-135 -138 0
-141 -142 0
-141 -143 0
-141 -144 0
-147 -148 0
-147 -149 0
-147 -150 0
-153 -154 0
-153 -155 0
-153 -156 0
-159 -160 0
-159 -161 0
-159 -162 0
-165 -166 0
-165 -167 0
-165 -168 0
-171 -172 0
-171 -173 0
-171 -174 0
-177 -178 0
-177 -179 0
-177 -180 0
-183 -184 0
-183 -185 0
-183 -186 0
-189 -190 0
-189 -191 0
-189 -192 0
-195 -196 0
-195 -197 0
-195 -198 0
-201 -202 0
-201 -203 0
-201 -204 0
-207 -208 0
-207 -209 0
-207 -210 0
-213 -214 0
-213 -215 0
-213 -216 0
-219 -220 0
-219 -221 0
-219 -222 0
-225 -226 0
-225 -227 0
-225 -228 0
-231 -232 0
-231 -233 0
-231 -234 0
-237 -238 0
-237 -239 0
-237 -240 0
-4 -5 0
-4 -6 0
-10 -11 0
-10 -12 0
-16 -17 0
-16 -18 0
-22 -23 0
-22 -24 0
-28 -29 0
-28 -30 0
-34 -35 0
-34 -36 0
-40 -41 0
-40 -42 0
-46 -47 0
-46 -48 0
-52 -53 0
-52 -54 0
-58 -59 0
-58 -60 0
-64 -65 0
-64 -66 0
-70 -71 0
-70 -72 0
-76 -77 0
-76 -78 0
-82 -83 0
-82 -84 0
-88 -89 0
-88 -90 0
-94 -95 0
-94 -96 0
-100 -101 0
-100 -102 0
-106 -107 0
-106 -108 0
-112 -113 0
-112 -114 0
-118 -119 0
-118 -120 0
-124 -125 0
-124 -126 0
-130 -131 0
-130 -132 0
-136 -137 0
-136 -138 0
-142 -143 0
-142 -144 0
-148 -149 0
-148 -150 0
-154 -155 0
-154 -156 0
-160 -161 0
-160 -162 0
-166 -167 0
-166 -168 0
-172 -173 0
-172 -174 0
-178 -179 0
-178 -180 0
-184 -185 0
-184 -186 0
-190 -191 0
-190 -192 0
-196 -197 0
-196 -198 0
-202 -203 0
-202 -204 0
-208 -209 0
-208 -210 0
-214 -215 0
-214 -216 0
-220 -221 0
-220 -222 0
-226 -227 0
-226 -228 0
-232 -233 0
-232 -234 0
-238 -239 0
-238 -240 0
-5 -6 0
-11 -12 0
-17 -18 0
-23 -24 0
-29 -30 0
-35 -36 0
-41 -42 0
-47 -48 0
-53 -54 0
-59 -60 0
-65 -66 0
-71 -72 0
-77 -78 0
-83 -84 0
-89 -90 0
-95 -96 0
-101 -102 0
-107 -108 0
-113 -114 0
-119 -120 0
-125 -126 0
-131 -132 0
-137 -138 0
-143 -144 0
-149 -150 0
-155 -156 0
-161 -162 0
-167 -168 0
-173 -174 0
-179 -180 0
-185 -186 0
-191 -192 0
-197 -198 0
-203 -204 0
-209 -210 0
-215 -216 0
-221 -222 0
-227 -228 0
-233 -234 0
-239 -240 0
